NAME: random-72-14673
TYPE: TSP
COMMENT: size=72 seed=14673
DIMENSION: 146
EDGE_WEIGHT_TYPE: EUC_2D
NODE_COORD_SECTION
+0 111 867
-0 111 867
+1 291 892
-1 682 774
+2 530 199
-2 451 258
+3 892 237
-3 3 35
+4 62 153
-4 945 816
+5 44 918
-5 783 817
+6 375 952
-6 824 776
+7 527 119
-7 302 497
+8 626 379
-8 530 57
+9 413 871
-9 640 613
+10 63 104
-10 348 837
+11 732 683
-11 695 536
+12 915 520
-12 511 146
+13 748 961
-13 227 149
+14 166 271
-14 710 183
+15 275 124
-15 452 545
+16 101 613
-16 986 427
+17 262 855
-17 692 721
+18 300 773
-18 661 164
+19 917 830
-19 94 490
+20 933 429
-20 213 826
+21 808 896
-21 771 871
+22 268 968
-22 137 161
+23 815 29
-23 665 707
+24 106 292
-24 477 447
+25 872 26
-25 725 692
+26 216 545
-26 990 33
+27 735 234
-27 211 50
+28 746 132
-28 659 869
+29 998 240
-29 22 565
+30 235 98
-30 294 918
+31 917 959
-31 682 250
+32 900 53
-32 908 796
+33 551 337
-33 524 750
+34 931 68
-34 678 44
+35 344 617
-35 154 430
+36 652 611
-36 960 631
+37 202 989
-37 380 960
+38 632 330
-38 994 328
+39 724 395
-39 778 197
+40 287 8
-40 485 856
+41 22 452
-41 781 311
+42 724 442
-42 270 397
+43 555 461
-43 838 150
+44 839 653
-44 602 371
+45 289 549
-45 813 257
+46 264 879
-46 571 213
+47 789 403
-47 554 783
+48 232 383
-48 395 428
+49 793 655
-49 405 596
+50 689 494
-50 366 920
+51 686 980
-51 348 653
+52 738 656
-52 255 64
+53 193 901
-53 688 503
+54 828 919
-54 852 465
+55 455 323
-55 329 716
+56 395 869
-56 190 234
+57 772 70
-57 721 707
+58 555 58
-58 386 145
+59 97 127
-59 985 40
+60 342 771
-60 995 293
+61 120 205
-61 928 993
+62 180 942
-62 836 610
+63 275 197
-63 222 914
+64 561 668
-64 246 438
+65 540 702
-65 668 387
+66 347 740
-66 703 929
+67 718 650
-67 104 84
+68 760 638
-68 640 732
+69 598 645
-69 44 370
+70 486 874
-70 184 112
+71 285 944
-71 110 618
+72 148 462
-72 19 659
PRECEDENCE_SECTION
+0 -0
+1 -1
+2 -2
+3 -3
+4 -4
+5 -5
+6 -6
+7 -7
+8 -8
+9 -9
+10 -10
+11 -11
+12 -12
+13 -13
+14 -14
+15 -15
+16 -16
+17 -17
+18 -18
+19 -19
+20 -20
+21 -21
+22 -22
+23 -23
+24 -24
+25 -25
+26 -26
+27 -27
+28 -28
+29 -29
+30 -30
+31 -31
+32 -32
+33 -33
+34 -34
+35 -35
+36 -36
+37 -37
+38 -38
+39 -39
+40 -40
+41 -41
+42 -42
+43 -43
+44 -44
+45 -45
+46 -46
+47 -47
+48 -48
+49 -49
+50 -50
+51 -51
+52 -52
+53 -53
+54 -54
+55 -55
+56 -56
+57 -57
+58 -58
+59 -59
+60 -60
+61 -61
+62 -62
+63 -63
+64 -64
+65 -65
+66 -66
+67 -67
+68 -68
+69 -69
+70 -70
+71 -71
+72 -72
EOF
